100
1000
200
197
197
196
195
195
195
195
194
193
193
193
192
192
191
190
190
189
189
188
186
185
185
185
183
183
182
182
181
181
181
179
179
178
177
176
176
175
174
174
174
174
174
173
173
172
172
172
172
170
170
170
168
167
167
167
166
166
165
165
164
164
164
164
164
163
163
163
163
163
162
161
160
160
160
159
159
158
158
158
158
158
157
157
157
157
156
156
155
155
154
154
154
154
153
153
153
153
152
152
